DATASET = "thpack5";
INSTANCE = "079";

WIDTH = 233;
HEIGHT = 220;
LENGTH = 587;

NO_OF_SHAPES = 12;
size = [|
  64,48,46 |
  79,25,22 |
  89,85,33 |
  79,66,34 |
  79,54,31 |
  115,95,22 |
  76,54,44 |
  80,44,29 |
  66,33,26 |
  50,32,32 |
  116,93,21 |
  113,64,50 |
|];

verticality = [|
  1,1,1 |
  0,1,1 |
  0,0,1 |
  0,1,1 |
  0,1,1 |
  0,0,1 |
  1,1,1 |
  0,1,1 |
  0,1,1 |
  1,1,1 |
  0,0,1 |
  0,1,1 |
|];

box_count = [
  14,
  23,
  19,
  17,
  16,
  11,
  20,
  10,
  15,
  15,
  19,
  11,
];
